language Essence 1.3

letting blksize_delta be
        function(1 --> 10, 2 --> 10, 3 --> 10, 4 --> 10, 5 --> 10, 6 --> 10, 7 --> 10, 8 --> 10, 9 --> 10, 10 --> 10,
                 11 --> 10, 12 --> 10, 13 --> 10, 14 --> 10, 15 --> 10, 16 --> 10, 17 --> 10, 18 --> 10, 19 --> 10,
                 20 --> 10, 21 --> 10, 22 --> 10)
letting maxcars be
        function(1 --> 8, 2 --> 8, 3 --> 8, 4 --> 8, 5 --> 8, 6 --> 8, 7 --> 8, 8 --> 8, 9 --> 8, 10 --> 8, 11 --> 8,
                 12 --> 8, 13 --> 9, 14 --> 8, 15 --> 8, 16 --> 10, 17 --> 8, 18 --> 8, 19 --> 8, 20 --> 8, 21 --> 9,
                 22 --> 8)
letting n_cars be 214
letting n_classes be 41
letting n_options be 22
letting quantity be
        function(1 --> 5, 2 --> 5, 3 --> 5, 4 --> 13, 5 --> 5, 6 --> 5, 7 --> 5, 8 --> 6, 9 --> 5, 10 --> 5, 11 --> 5,
                 12 --> 5, 13 --> 5, 14 --> 5, 15 --> 5, 16 --> 5, 17 --> 5, 18 --> 5, 19 --> 5, 20 --> 5, 21 --> 5,
                 22 --> 5, 23 --> 5, 24 --> 5, 25 --> 5, 26 --> 5, 27 --> 5, 28 --> 5, 29 --> 5, 30 --> 5, 31 --> 5,
                 32 --> 5, 33 --> 5, 34 --> 5, 35 --> 5, 36 --> 5, 37 --> 5, 38 --> 5, 39 --> 5, 40 --> 5, 41 --> 5)
letting usage be
        relation((1, 18), (2, 11), (2, 16), (2, 18), (3, 5), (4, 15), (4, 17), (5, 22), (6, 4), (6, 5), (6, 11), (7, 7),
                 (8, 4), (8, 5), (8, 6), (8, 9), (8, 13), (8, 16), (8, 17), (8, 22), (9, 1), (9, 4), (9, 5), (10, 7),
                 (11, 13), (11, 14), (11, 21), (12, 14), (12, 15), (12, 19), (13, 4), (13, 5), (13, 8), (14, 2),
                 (14, 20), (14, 21), (15, 4), (15, 10), (15, 11), (15, 17), (16, 9), (16, 15), (16, 18), (17, 7),
                 (17, 9), (18, 3), (18, 5), (18, 11), (18, 14), (18, 16), (19, 4), (19, 7), (19, 9), (19, 13), (19, 22),
                 (20, 1), (20, 9), (21, 4), (21, 7), (22, 22), (23, 22), (24, 11), (25, 10), (25, 12), (25, 13),
                 (26, 15), (27, 1), (28, 4), (28, 19), (29, 1), (29, 8), (30, 1), (30, 7), (31, 19), (32, 11), (32, 21),
                 (33, 11), (33, 20), (33, 22), (34, 1), (34, 9), (34, 11), (35, 22), (36, 6), (36, 12), (36, 13),
                 (36, 17), (37, 9), (37, 17), (37, 19), (37, 21), (38, 3), (38, 13), (38, 20), (39, 7), (40, 2),
                 (40, 16), (40, 18), (40, 20), (41, 11))
$ Visualisation for usage
$  1 18
$  2 11
$  2 16
$  2 18
$  3  5
$  4 15
$  4 17
$  5 22
$  6  4
$  6  5
$  6 11
$  7  7
$  8  4
$  8  5
$  8  6
$  8  9
$  8 13
$  8 16
$  8 17
$  8 22
$  9  1
$  9  4
$  9  5
$ 10  7
$ 11 13
$ 11 14
$ 11 21
$ 12 14
$ 12 15
$ 12 19
$ 13  4
$ 13  5
$ 13  8
$ 14  2
$ 14 20
$ 14 21
$ 15  4
$ 15 10
$ 15 11
$ 15 17
$ 16  9
$ 16 15
$ 16 18
$ 17  7
$ 17  9
$ 18  3
$ 18  5
$ 18 11
$ 18 14
$ 18 16
$ 19  4
$ 19  7
$ 19  9
$ 19 13
$ 19 22
$ 20  1
$ 20  9
$ 21  4
$ 21  7
$ 22 22
$ 23 22
$ 24 11
$ 25 10
$ 25 12
$ 25 13
$ 26 15
$ 27  1
$ 28  4
$ 28 19
$ 29  1
$ 29  8
$ 30  1
$ 30  7
$ 31 19
$ 32 11
$ 32 21
$ 33 11
$ 33 20
$ 33 22
$ 34  1
$ 34  9
$ 34 11
$ 35 22
$ 36  6
$ 36 12
$ 36 13
$ 36 17
$ 37  9
$ 37 17
$ 37 19
$ 37 21
$ 38  3
$ 38 13
$ 38 20
$ 39  7
$ 40  2
$ 40 16
$ 40 18
$ 40 20
$ 41 11

